WARNING: for repeatability, setting FPU to use double precision
============================[ Problem Statistics ]=============================
|                                                                             |
|  Number of variables:           100                                         |
|  Number of clauses:             449                                         |
|  Parse time:                   0.00 s                                       |
|  Eliminated clauses:           0.00 Mb                                      |
|  Simplification time:          0.00 s                                       |
|                                                                             |
============================[ Search Statistics ]==============================
| Conflicts |          ORIGINAL         |          LEARNT          | Progress |
|           |    Vars  Clauses Literals |    Limit  Clauses Lit/Cl |          |
===============================================================================
|       100 |      96      445     1360 |      163      100      7 |  0.010 % |
|       250 |      96      445     1360 |      179      167      7 |  0.011 % |
===============================================================================
restarts              : 3
conflicts             : 298            (79509 /sec)
decisions             : 353            (0.00 % random) (94184 /sec)
propagations          : 6934           (1850053 /sec)
conflict literals     : 2007           (19.17 % deleted)
Memory used           : 13.00 MB
CPU time              : 0.003748 s

SATISFIABLE
